NAME : qa194
COMMENT : 194 locations in Qatar
COMMENT : Derived from National Imagery and Mapping Agency data
TYPE : TSP
ROBOT : 1
DIMENSION : 10
EDGE_WEIGHT_TYPE : EUC_2D
ROBOT_BUDGET_SECTION
1 12000
NODE_COORD_SECTION
1 133.1801 669.7463 6.8565
2 837.9731 547.0989 12.6162
3 989.7492 109.2544 12.1117
4 535.7418 956.3838 12.1959
5 759.3154 199.6309 11.0204
6 495.8377 552.4915 6.6627
7 365.4723 170.3852 12.2946
8 754.7674 260.7394 14.1208
9 983.4195 190.6877 10.1809
10 993.4657 836.8513 6.0234
EOF
